Minimize
  + 48.71443593437011 Constant
Subject To
 R4: (can_grasp_begin_0-arm-(0,_0)) = -0.035
 R102: - (hsr-arm-(0,_19)) <= 0
 R114: (hsr-arm-(0,_19)) - (can_grasp_begin_0-arm-(0,_0)) = 0
Bounds
 (hsr-arm-(0,_19)) free
 (can_grasp_begin_0-arm-(0,_0)) free
 Constant = 1
End
